Route #1: 1 42 77 439 1 
Route #2: 1 258 358 416 1 
Route #3: 1 155 254 397 1 
Route #4: 1 244 389 283 1 
Route #5: 1 91 106 111 109 1 
Route #6: 1 1 467 17 1 
Route #7: 1 160 243 394 1 
Route #8: 1 265 417 201 1 
Route #9: 1 322 352 150 1 
Route #10: 1 45 187 360 1 
Route #11: 1 236 286 269 1 
Route #12: 1 196 156 441 1 
Route #13: 1 289 26 238 183 1 
Route #14: 1 231 175 234 1 
Route #15: 1 184 29 411 1 
Route #16: 1 459 69 48 1 
Route #17: 1 82 211 96 1 
Route #18: 1 4 246 303 1 
Route #19: 1 30 433 443 1 
Route #20: 1 267 151 152 1 
Route #21: 1 167 318 172 1 
Route #22: 1 287 340 137 130 1 
Route #23: 1 432 189 154 1 
Route #24: 1 93 361 10 1 
Route #25: 1 346 349 14 1 
Route #26: 1 79 56 23 1 
Route #27: 1 343 430 199 1 
Route #28: 1 266 52 284 402 1 
Route #29: 1 186 422 301 100 1 
Route #30: 1 376 446 407 1 
Route #31: 1 431 391 232 1 
Route #32: 1 241 375 73 1 
Route #33: 1 139 5 44 1 
Route #34: 1 54 220 354 1 
Route #35: 1 448 166 453 1 
Route #36: 1 80 132 114 1 
Route #37: 1 305 72 230 121 1 
Route #38: 1 209 281 131 1 
Route #39: 1 193 207 447 333 1 
Route #40: 1 149 412 310 1 
Route #41: 1 421 385 101 1 
Route #42: 1 224 268 86 1 
Route #43: 1 392 400 58 1 
Route #44: 1 251 78 237 1 
Route #45: 1 214 170 138 1 
Route #46: 1 19 63 190 1 
Route #47: 1 103 49 206 1 
Route #48: 1 378 449 414 1 
Route #49: 1 261 117 20 1 
Route #50: 1 285 288 64 1 
Route #51: 1 185 182 59 1 
Route #52: 1 381 367 319 1 
Route #53: 1 38 113 144 1 
Route #54: 1 370 94 31 1 
Route #55: 1 6 282 164 278 1 
Route #56: 1 39 372 15 1 
Route #57: 1 213 437 65 1 
Route #58: 1 198 71 321 1 
Route #59: 1 323 18 210 1 
Route #60: 1 66 395 342 1 
Route #61: 1 129 388 116 191 1 
Route #62: 1 3 107 270 1 
Route #63: 1 274 406 126 1 
Route #64: 1 43 434 364 1 
Route #65: 1 136 373 280 1 
Route #66: 1 181 222 124 1 
Route #67: 1 300 424 245 1 
Route #68: 1 223 195 309 298 1 
Route #69: 1 159 295 379 1 
Route #70: 1 68 22 408 1 
Route #71: 1 133 325 128 1 
Route #72: 1 173 306 205 1 
Route #73: 1 445 162 351 1 
Route #74: 1 9 256 271 1 
Route #75: 1 102 81 127 415 1 
Route #76: 1 105 148 35 1 
Route #77: 1 188 97 123 1 
Route #78: 1 112 104 24 1 
Route #79: 1 444 143 27 1 
Route #80: 1 320 383 377 1 
Route #81: 1 153 380 330 1 
Route #82: 1 235 145 178 1 
Route #83: 1 353 169 463 1 
Route #84: 1 33 454 336 225 1 
Route #85: 1 456 461 399 1 
Route #86: 1 390 418 57 1 
Route #87: 1 90 208 41 1 
Route #88: 1 365 212 247 1 
Route #89: 1 314 242 99 1 
Route #90: 1 51 233 84 1 
Route #91: 1 122 171 462 1 
Route #92: 1 450 200 142 1 
Route #93: 1 249 75 369 1 
Route #94: 1 368 366 398 1 
Route #95: 1 74 119 34 1 
Route #96: 1 362 335 329 1 
Route #97: 1 218 294 442 1 
Route #98: 1 76 118 28 255 1 
Route #99: 1 110 165 95 1 
Route #100: 1 327 363 427 120 1 
Route #101: 1 291 53 374 1 
Route #102: 1 423 262 428 1 
Route #103: 1 357 60 290 1 
Route #104: 1 135 61 11 194 1 
Route #105: 1 337 180 308 248 1 
Route #106: 1 436 259 324 1 
Route #107: 1 457 419 174 47 1 
Route #108: 1 13 163 215 1 
Route #109: 1 252 438 250 1 
Route #110: 1 313 384 12 1 
Route #111: 1 67 7 293 1 
Route #112: 1 458 16 62 1 
Route #113: 1 216 466 46 1 
Route #114: 1 221 263 452 1 
Route #115: 1 157 326 348 275 1 
Route #116: 1 55 435 401 1 
Route #117: 1 2 50 429 1 
Route #118: 1 98 297 307 1 
Route #119: 1 304 387 331 1 
Route #120: 1 177 344 219 253 1 
Route #121: 1 40 192 403 1 
Route #122: 1 36 350 315 1 
Route #123: 1 115 32 405 1 
Route #124: 1 147 264 92 1 
Route #125: 1 25 338 140 197 1 
Route #126: 1 203 176 134 1 
Route #127: 1 347 464 125 1 
Route #128: 1 8 277 85 1 
Route #129: 1 396 108 311 1 
Route #130: 1 226 204 141 1 
Route #131: 1 334 382 276 1 
Route #132: 1 386 296 393 1 
Route #133: 1 356 217 332 1 
Route #134: 1 341 88 292 1 
Route #135: 1 227 70 426 355 1 
Route #136: 1 272 451 465 1 
Route #137: 1 468 21 83 1 
Route #138: 1 202 410 229 1 
Route #139: 1 359 316 371 1 
Route #140: 1 257 299 409 1 
Route #141: 1 146 413 240 1 
Route #142: 1 317 328 279 1 
Route #143: 1 239 420 425 1 
Route #144: 1 345 168 440 1 
Route #145: 1 302 455 260 1 
Route #146: 1 228 37 273 1 
Route #147: 1 161 87 158 1 
Route #148: 1 339 404 460 1 
Route #149: 1 89 179 1 
Route #150: 1 312 1 

Cost 186059
Time 37.5063


 * Another infos *

 Iterations: 469 Time: 37.5063 sec - 0.6251 min - 0.0104 horas
0.0000 h 0.6251 min
Problem dimension: 469
